Valor_otimo
1936
Total_de_cidades
12
Matriz_dos_custos_dos_caminhos
           0         198          13         478         733         443         291         220         641         337         761         424
         198           0         181         655         401         991         661         753         787         308         389         467
          13         181           0         288          53         332         156         674         987          16         775         980
         478         655         288           0         744         832         659         101         818         703         465         718
         733         401          53         744           0         869         695         825          95         396         399         871
         443         991         332         832         869           0         894         217         899         493         761           8
         291         661         156         659         695         894           0         283         301          81         947         147
         220         753         674         101         825         217         283           0         851         914         388         980
         641         787         987         818          95         899         301         851           0         557         743         136
         337         308          16         703         396         493          81         914         557           0         511          15
         761         389         775         465         399         761         947         388         743         511           0          19
         424         467         980         718         871           8         147         980         136          15          19           0
